log/Reading instance from file data/g02.dat
Number of nodes: 21
Number of edges: 65
initialize CPLEX ... done.
Calling CPLEX solve ...
Version identifier: 12.10.0.0 | 2019-11-26 | 843d4de
CPXPARAM_Threads                                 1
CPXPARAM_TimeLimit                               3600
CPXPARAM_WorkMem                                 8192
Tried aggregator 1 time.
MIP Presolve eliminated 43 rows and 22 columns.
MIP Presolve modified 209 coefficients.
Reduced MIP has 173 rows, 150 columns, and 720 nonzeros.
Reduced MIP has 130 binaries, 20 generals, 0 SOSs, and 0 indicators.
Presolve time = 0.00 sec. (0.67 ticks)
Probing time = 0.00 sec. (0.25 ticks)
Tried aggregator 1 time.
Detecting symmetries...
Reduced MIP has 173 rows, 150 columns, and 720 nonzeros.
Reduced MIP has 130 binaries, 20 generals, 0 SOSs, and 0 indicators.
Presolve time = 0.00 sec. (0.52 ticks)
Probing time = 0.00 sec. (0.26 ticks)
Clique table members: 195.
MIP emphasis: balance optimality and feasibility.
MIP search method: dynamic search.
Parallel mode: none, using 1 thread.
Root relaxation solution time = 0.00 sec. (0.39 ticks)

        Nodes                                         Cuts/
   Node  Left     Objective  IInf  Best Integer    Best Bound    ItCnt     Gap

      0     0      901.5455     8                    901.5455       58         
      0     0     1104.5455     8                    Cuts: 22       81         
      0     0     1173.0000     8                    Cuts: 40      116         
      0     0     1229.2000     8                    Cuts: 28      137         
      0     0     1280.0000     8                    Cuts: 17      148         
      0     0     1280.0000     8                     Cuts: 7      151         
Detecting symmetries...
      0     0     1280.0000     8                 ZeroHalf: 2      152         
      0     0     1280.0000     8                     Cuts: 4      156         
*     0+    0                         2304.0000     1280.0000            44.44%
*     0+    0                         1720.0000     1280.0000            25.58%
      0     0  -1.00000e+75     0     1720.0000     1280.0000      156   25.58%
Detecting symmetries...
      0     2     1280.0000    13     1720.0000     1280.0000      156   25.58%
Elapsed time = 0.03 sec. (15.05 ticks, tree = 0.01 MB, solutions = 2)
*     9     4      integral     0     1390.0000     1296.9091      200    6.70%

Clique cuts applied:  16
Cover cuts applied:  3
Implied bound cuts applied:  31
Mixed integer rounding cuts applied:  2
Zero-half cuts applied:  4
Lift and project cuts applied:  3
Gomory fractional cuts applied:  1

Root node processing (before b&c):
  Real time             =    0.03 sec. (15.05 ticks)
Sequential b&c:
  Real time             =    0.01 sec. (5.04 ticks)
                          ------------
Total (root+branch&cut) =    0.03 sec. (20.09 ticks)
SOLUTION:

x(1,3)[0..1]  = 1
x(1,6)[0..1]  = 1
x(1,19)[0..1]  = 1
x(5,7)[0..1]  = 1
x(7,11)[0..1]  = 1
x(17,5)[0..1]  = 1
x(19,17)[0..1]  = 1
z(1)[0..1]  = 1
z(3)[0..1]  = 1
z(5)[0..1]  = 1
z(6)[0..1]  = 1
z(11)[0..1]  = 1
z(17)[0..1]  = 1
z(19)[0..1]  = 1


CPLEX finished.

CPLEX status: Optimal
Branch-and-Bound nodes: 36
Objective value: 1390
CPU time: 0.03

